NAME: br17 
TYPE: ATSP 
COMMENT: 17 city problem (Repetto) 
DIMENSION: 17 
EDGE_WEIGHT_TYPE: EXPLICIT 
EDGE_WEIGHT_FORMAT: FULL_MATRIX 

CROSSOVER: 1
MUTATIONS: 1 2
SELECTION: 2
GENERATIONS: 425
POPULATION: 85

0 time
 15 5 14 3 4 16 7 8 1 10 12 9 2 13 11 0 6 | Mu 39.

1 time
 6 14 5 15 4 3 8 7 0 11 1 9 10 2 13 12 16 | Mu 45.

2 time
 10 1 12 0 11 2 13 9 7 16 8 5 6 15 3 4 14 | Mu 44.

3 time
 5 6 15 3 4 14 0 11 1 10 9 2 13 12 7 8 16 | Mu 42.

4 time
 7 8 16 0 11 1 9 10 2 13 12 6 14 15 5 4 3 | Mu 40.

MINIMUM: 39
AVERAGE: 42
MAXIMUM: 45

CROSSOVER: 2
MUTATIONS: 1 2
SELECTION: 1
GENERATIONS: 425
POPULATION: 85

0 time
 0 11 12 1 10 9 2 13 8 5 6 7 15 14 3 4 16 | Mu 77.

1 time
 11 1 13 0 9 10 8 16 3 4 14 15 6 7 5 12 2 | Mu 69.

2 time
 14 5 7 15 3 4 16 8 0 13 9 12 2 11 1 10 6 | Mu 66.

3 time
 7 11 6 0 16 3 5 9 13 10 1 2 12 8 15 4 14 | Mu 97.

4 time
 10 9 2 0 11 12 13 1 7 8 16 4 14 6 15 3 5 | Mu 60.

MINIMUM: 60
AVERAGE: 73
MAXIMUM: 103

CROSSOVER: 2
MUTATIONS: 1 2
SELECTION: 2
GENERATIONS: 425
POPULATION: 85

0 time
 7 8 16 1 9 10 12 2 13 11 0 5 6 15 14 4 3 | Mu 39.

1 time
 7 8 16 1 9 10 12 2 13 0 11 6 14 5 15 3 4 | Mu 39.

2 time
 10 1 9 12 2 13 0 11 8 16 7 5 6 15 3 4 14 | Mu 41.

3 time
 4 3 14 5 6 15 1 9 12 11 0 13 2 10 8 7 16 | Mu 42.

4 time
 2 1 9 10 12 0 7 16 8 5 6 14 3 4 15 11 13 | Mu 44.

MINIMUM: 39
AVERAGE: 41
MAXIMUM: 44

CROSSOVER: 3
MUTATIONS: 1 2
SELECTION: 1
GENERATIONS: 425
POPULATION: 85

0 time
 10 9 13 2 1 6 4 3 5 15 14 8 16 7 0 11 12 | Mu 42.

1 time
 3 4 16 8 10 9 13 2 11 0 12 1 7 5 14 6 15 | Mu 47.

2 time
 6 0 11 12 2 13 10 9 1 7 8 16 14 4 3 15 5 | Mu 42.

3 time
 11 9 10 12 2 13 1 8 7 15 5 6 14 3 4 16 0 | Mu 45.

4 time
 7 8 9 1 12 10 13 2 11 0 5 6 14 15 3 4 16 | Mu 39.

MINIMUM: 39
AVERAGE: 43
MAXIMUM: 47

CROSSOVER: 3
MUTATIONS: 1 2
SELECTION: 2
GENERATIONS: 425
POPULATION: 85

0 time
 14 5 15 3 4 6 1 10 12 9 2 13 11 0 8 7 16 | Mu 41.

1 time
 14 6 15 3 4 7 8 16 0 1 10 12 9 2 13 11 5 | Mu 42.

2 time
 6 5 15 3 4 7 8 16 12 9 1 11 0 13 2 10 14 | Mu 42.

3 time
 15 5 6 14 4 3 7 16 8 1 9 10 12 2 13 11 0 | Mu 39.

4 time
 7 16 8 1 12 9 10 2 13 0 11 5 14 15 6 4 3 | Mu 39.

MINIMUM: 39
AVERAGE: 40
MAXIMUM: 51

